# Solution for model obj
# Objective value = 20
x#1 0
x#2 0
x#3 0
x#4 0
x#5 1
x#6 0
x#7 0
x#8 1
x#9 1
x#10 1
x#11 0
x#12 1
x#13 1
x#14 1
x#15 1
x#16 1
x#17 1
x#18 1
x#19 1
x#20 1
x#21 1
x#22 1
x#23 1
x#24 1
x#25 1
x#26 0
x#27 1
x#28 0
x#29 1
x#30 0
x#31 0
x#32 0
x#33 0
x#34 0
